g3 0 1 0	# problem d5n8R2R6d005d1
 8 7 1 0 2	# vars, constraints, objectives, ranges, eqns
 4 1	# nonlinear constraints, objectives
 0 0	# network constraints: nonlinear, linear
 8 8 8	# nonlinear vars in constraints, objectives, both
 0 0 0 1	# linear network variables; functions; arith, flags
 0 0 0 0 0	# discrete variables: binary, integer, nonlinear (b,c,o)
 56 8	# nonzeros in Jacobian, gradients
 0 0	# max name lengths: constraints, variables
 0 0 0 0 0	# common exprs: b,c,o,c1,o1
b
0 0.97 2.51
0 0.38 2.25
0 0.94 2.01
0 0.89 2.01
0 0.01 2.4
0 0.11 2.77
0 0.74 2.35
0 0.37 2.94
r
2 70.685
2 118.686
2 306.033
2 2020.45
4 57.427
4 45.967
2 33.552
C0
o0
o2
o2
n1.54
v3
v3
o2
o2
n6.37
v4
v6
C1
o54
7
o16
o2
o2
n0.95
v3
v3
o2
o2
n2.46
v4
v6
o2
o2
o2
n2.62
v0
v3
v5
o2
o2
o2
n8
v0
v4
v4
o2
o2
o2
n5.77
v2
v4
v4
o2
o2
o2
n5.2
v3
v3
v4
o2
o2
o2
n4.98
v3
v5
v7
C2
o54
20
o16
o2
o2
n4.59
v3
v3
o16
o2
o2
n4.03
v4
v6
o2
o2
o2
n7.78
v0
v3
v5
o2
o2
o2
n4.62
v0
v4
v4
o2
o2
o2
n3.79
v2
v4
v4
o2
o2
o2
n3.46
v3
v3
v4
o2
o2
o2
n5.21
v3
v5
v7
o2
o2
o2
o2
n8.14
v0
v0
v2
v3
o2
o2
o2
o2
n0.2
v0
v0
v2
v6
o2
o2
o2
o2
n0.51
v0
v3
v3
v6
o2
o2
o2
o2
n0.49
v0
v3
v4
v4
o2
o2
o2
o2
n0.77
v0
v4
v4
v6
o2
o2
o2
o2
n0.31
v0
v4
v6
v7
o2
o2
o2
o2
n0.77
v1
v1
v6
v7
o2
o2
o2
o2
n9.28
v1
v4
v6
v7
o2
o2
o2
o2
n2.08
v2
v3
v4
v6
o2
o2
o2
o2
n6.87
v2
v3
v5
v6
o2
o2
o2
o2
n8.89
v3
v6
v6
v6
o2
o2
o2
o2
n1.38
v5
v5
v5
v5
o2
o2
o2
o2
n1.21
v5
v5
v7
v7
C3
o54
64
o2
o2
n7.76
v3
v3
o2
o2
n7.56
v4
v6
o2
o2
o2
n8.32
v0
v3
v5
o2
o2
o2
n0.25
v0
v4
v4
o16
o2
o2
o2
n2.71
v2
v4
v4
o2
o2
o2
n7.67
v3
v3
v4
o2
o2
o2
n7.45
v3
v5
v7
o2
o2
o2
o2
n5.01
v0
v0
v2
v3
o2
o2
o2
o2
n8.9
v0
v0
v2
v6
o2
o2
o2
o2
n5.06
v0
v3
v3
v6
o2
o2
o2
o2
n1.65
v0
v3
v4
v4
o2
o2
o2
o2
n6.06
v0
v4
v4
v6
o2
o2
o2
o2
n2.32
v0
v4
v6
v7
o2
o2
o2
o2
n8.37
v1
v1
v6
v7
o2
o2
o2
o2
n1.56
v1
v4
v6
v7
o2
o2
o2
o2
n5.05
v2
v3
v4
v6
o2
o2
o2
o2
n2.09
v2
v3
v5
v6
o2
o2
o2
o2
n6.83
v3
v6
v6
v6
o2
o2
o2
o2
n5.62
v5
v5
v5
v5
o2
o2
o2
o2
n6.62
v5
v5
v7
v7
o2
o2
o2
o2
o2
n6.4
v0
v0
v0
v1
v4
o2
o2
o2
o2
o2
n4.06
v0
v0
v0
v3
v3
o2
o2
o2
o2
o2
n4.22
v0
v0
v2
v4
v4
o2
o2
o2
o2
o2
n5.24
v0
v0
v4
v6
v7
o2
o2
o2
o2
o2
n4.78
v0
v0
v5
v5
v6
o2
o2
o2
o2
o2
n8.07
v0
v0
v5
v5
v7
o2
o2
o2
o2
o2
n0.04
v0
v0
v5
v6
v6
o2
o2
o2
o2
o2
n8.44
v0
v0
v6
v7
v7
o2
o2
o2
o2
o2
n6.57
v0
v1
v1
v3
v7
o2
o2
o2
o2
o2
n7.62
v0
v1
v3
v3
v3
o2
o2
o2
o2
o2
n4.61
v0
v2
v2
v2
v4
o2
o2
o2
o2
o2
n6.18
v0
v2
v2
v3
v4
o2
o2
o2
o2
o2
n5.62
v0
v2
v3
v4
v5
o2
o2
o2
o2
o2
n4.69
v0
v2
v6
v6
v7
o2
o2
o2
o2
o2
n1.23
v0
v3
v4
v5
v5
o2
o2
o2
o2
o2
n6.55
v0
v4
v4
v4
v7
o2
o2
o2
o2
o2
n1.3
v1
v1
v1
v2
v5
o2
o2
o2
o2
o2
n3.31
v1
v1
v1
v5
v7
o2
o2
o2
o2
o2
n4.02
v1
v1
v1
v6
v6
o2
o2
o2
o2
o2
n7.66
v1
v1
v1
v6
v7
o2
o2
o2
o2
o2
n5.7
v1
v1
v2
v4
v6
o2
o2
o2
o2
o2
n4.57
v1
v1
v2
v7
v7
o16
o2
o2
o2
o2
o2
n3.28
v1
v1
v4
v4
v6
o2
o2
o2
o2
o2
n5.79
v1
v2
v2
v5
v5
o2
o2
o2
o2
o2
n7.12
v1
v2
v2
v7
v7
o2
o2
o2
o2
o2
n7.95
v1
v2
v3
v5
v5
o16
o2
o2
o2
o2
o2
n7.11
v1
v2
v4
v6
v7
o2
o2
o2
o2
o2
n9.84
v1
v2
v4
v7
v7
o2
o2
o2
o2
o2
n9.78
v1
v3
v3
v4
v5
o2
o2
o2
o2
o2
n8.82
v1
v3
v3
v6
v6
o2
o2
o2
o2
o2
n9.26
v1
v3
v5
v5
v7
o2
o2
o2
o2
o2
n1.99
v1
v3
v5
v6
v6
o2
o2
o2
o2
o2
n9.85
v1
v4
v4
v6
v6
o2
o2
o2
o2
o2
n2.25
v1
v4
v5
v7
v7
o2
o2
o2
o2
o2
n3.19
v2
v2
v2
v4
v5
o2
o2
o2
o2
o2
n4.59
v2
v7
v7
v7
v7
o2
o2
o2
o2
o2
n7.59
v3
v3
v4
v5
v6
o16
o2
o2
o2
o2
o2
n3.02
v3
v4
v4
v5
v5
o16
o2
o2
o2
o2
o2
n2.5
v3
v4
v5
v5
v5
o2
o2
o2
o2
o2
n3.32
v3
v5
v5
v5
v6
o2
o2
o2
o2
o2
n5.91
v3
v6
v6
v6
v6
o2
o2
o2
o2
o2
n1.97
v4
v4
v4
v7
v7
o2
o2
o2
o2
o2
n7.45
v4
v6
v7
v7
v7
o2
o2
o2
o2
o2
n6.64
v6
v6
v6
v7
v7
C4
n0
C5
n0
C6
n0
O0 0
o54
64
o2
o2
n1.03
v3
v3
o2
o2
n7.78
v4
v6
o2
o2
o2
n8.97
v0
v3
v5
o16
o2
o2
o2
n9.29
v0
v4
v4
o2
o2
o2
n6.83
v2
v4
v4
o2
o2
o2
n0.15
v3
v3
v4
o2
o2
o2
n0.33
v3
v5
v7
o2
o2
o2
o2
n6.03
v0
v0
v2
v3
o2
o2
o2
o2
n9.11
v0
v0
v2
v6
o2
o2
o2
o2
n2.65
v0
v3
v3
v6
o2
o2
o2
o2
n4.47
v0
v3
v4
v4
o2
o2
o2
o2
n7.52
v0
v4
v4
v6
o2
o2
o2
o2
n6.56
v0
v4
v6
v7
o2
o2
o2
o2
n7.44
v1
v1
v6
v7
o16
o2
o2
o2
o2
n5.25
v1
v4
v6
v7
o16
o2
o2
o2
o2
n8.65
v2
v3
v4
v6
o2
o2
o2
o2
n3.66
v2
v3
v5
v6
o2
o2
o2
o2
n1.03
v3
v6
v6
v6
o2
o2
o2
o2
n8.36
v5
v5
v5
v5
o16
o2
o2
o2
o2
n2.95
v5
v5
v7
v7
o2
o2
o2
o2
o2
n5.51
v0
v0
v0
v1
v4
o16
o2
o2
o2
o2
o2
n8.27
v0
v0
v0
v3
v3
o16
o2
o2
o2
o2
o2
n6.74
v0
v0
v2
v4
v4
o2
o2
o2
o2
o2
n2.22
v0
v0
v4
v6
v7
o2
o2
o2
o2
o2
n4.01
v0
v0
v5
v5
v6
o2
o2
o2
o2
o2
n7.49
v0
v0
v5
v5
v7
o2
o2
o2
o2
o2
n7.44
v0
v0
v5
v6
v6
o2
o2
o2
o2
o2
n7.33
v0
v0
v6
v7
v7
o2
o2
o2
o2
o2
n5.21
v0
v1
v1
v3
v7
o2
o2
o2
o2
o2
n6.99
v0
v1
v3
v3
v3
o2
o2
o2
o2
o2
n9.56
v0
v2
v2
v2
v4
o2
o2
o2
o2
o2
n0.3
v0
v2
v2
v3
v4
o2
o2
o2
o2
o2
n7.96
v0
v2
v3
v4
v5
o2
o2
o2
o2
o2
n2.72
v0
v2
v6
v6
v7
o2
o2
o2
o2
o2
n3.53
v0
v3
v4
v5
v5
o2
o2
o2
o2
o2
n7.61
v0
v4
v4
v4
v7
o2
o2
o2
o2
o2
n3.77
v1
v1
v1
v2
v5
o2
o2
o2
o2
o2
n7.2
v1
v1
v1
v5
v7
o2
o2
o2
o2
o2
n1.62
v1
v1
v1
v6
v6
o2
o2
o2
o2
o2
n4.78
v1
v1
v1
v6
v7
o2
o2
o2
o2
o2
n7.98
v1
v1
v2
v4
v6
o2
o2
o2
o2
o2
n9.76
v1
v1
v2
v7
v7
o2
o2
o2
o2
o2
n9.7
v1
v1
v4
v4
v6
o2
o2
o2
o2
o2
n2.16
v1
v2
v2
v5
v5
o2
o2
o2
o2
o2
n2.12
v1
v2
v2
v7
v7
o2
o2
o2
o2
o2
n7.97
v1
v2
v3
v5
v5
o2
o2
o2
o2
o2
n0.24
v1
v2
v4
v6
v7
o2
o2
o2
o2
o2
n2.07
v1
v2
v4
v7
v7
o2
o2
o2
o2
o2
n7.54
v1
v3
v3
v4
v5
o2
o2
o2
o2
o2
n0.29
v1
v3
v3
v6
v6
o2
o2
o2
o2
o2
n6.57
v1
v3
v5
v5
v7
o2
o2
o2
o2
o2
n7.03
v1
v3
v5
v6
v6
o2
o2
o2
o2
o2
n0.29
v1
v4
v4
v6
v6
o2
o2
o2
o2
o2
n0.1
v1
v4
v5
v7
v7
o2
o2
o2
o2
o2
n8.37
v2
v2
v2
v4
v5
o2
o2
o2
o2
o2
n9.4
v2
v7
v7
v7
v7
o2
o2
o2
o2
o2
n7.29
v3
v3
v4
v5
v6
o16
o2
o2
o2
o2
o2
n0.83
v3
v4
v4
v5
v5
o16
o2
o2
o2
o2
o2
n8.49
v3
v4
v5
v5
v5
o2
o2
o2
o2
o2
n2.18
v3
v5
v5
v5
v6
o2
o2
o2
o2
o2
n3.64
v3
v6
v6
v6
v6
o2
o2
o2
o2
o2
n2.42
v4
v4
v4
v7
v7
o2
o2
o2
o2
o2
n0.87
v4
v6
v7
v7
v7
o2
o2
o2
o2
o2
n1.05
v6
v6
v6
v7
v7
k7
7
14
21
28
35
42
49
J0 8
0 1.44
1 8.82
2 9.09
3 5.3
4 9.12
5 -4.11
6 3.36
7 6.12
J1 8
0 4.84
1 7.94
2 3.37
3 1.93
4 7.97
5 6.16
6 -1.64
7 0.64
J2 8
0 3.74
1 -4.52
2 5.98
3 9.21
4 6.44
5 1.9
6 2.53
7 3.3
J3 8
0 1.17
1 8.63
2 1.05
3 9.99
4 1.48
5 9.16
6 3.61
7 -2.41
J4 8
0 4.6
1 -5.06
2 9.1
3 5.31
4 2.24
5 8.32
6 2.55
7 9.87
J5 8
0 1.41
1 6.14
2 2.04
3 6.16
4 7.16
5 2.97
6 -3.33
7 9.51
J6 8
0 5.42
1 1.45
2 6.67
3 -8.28
4 5.46
5 1.63
6 7.54
7 2.3
G0 8
0 2.32
1 1.7
2 3.85
3 5.41
4 5.14
5 -5.05
6 4.08
7 2.82
